Solver command line: ['C:\\Program Files\\IBM\\ILOG\\CPLEX_Studio2211\\cplex\\bin\\x64_win64\\cplex.exe']


Welcome to IBM(R) ILOG(R) CPLEX(R) Interactive Optimizer 22.1.1.0
  with Simplex, Mixed Integer & Barrier Optimizers
5725-A06 5725-A29 5724-Y48 5724-Y49 5724-Y54 5724-Y55 5655-Y21
Copyright IBM Corp. 1988, 2022.  All Rights Reserved.

Type 'help' for a list of available commands.
Type 'help' followed by a command name for more
information on commands.

CPLEX> Logfile 'cplex.log' closed.
Logfile 'C:\Users\wangy\Documents\GitHub\re_optimization\result_site_specific\tmpcmi9cstb.cplex.log' open.
CPLEX> Problem 'C:\Users\wangy\Documents\GitHub\re_optimization\result_site_specific\tmp_3u2w5v2.pyomo.lp' read.
Read time = 0.17 sec. (6.21 ticks)
CPLEX> Problem name         : C:\Users\wangy\Documents\GitHub\re_optimization\result_site_specific\tmp_3u2w5v2.pyomo.lp
Objective sense      : Minimize
Variables            :   43845  [Nneg: 23381,  Free: 4400,  Binary: 4,
                                 Other: 16060]
Objective nonzeros   :      11
Linear constraints   :   64280  [Less: 35051,  Greater: 3,  Equal: 29226]
  Nonzeros           :  154886
  RHS nonzeros       :    4095

Variables            : Min LB: 0.000000         Max UB: 1.000000       
Objective nonzeros   : Min   : 1.000000         Max   : 1.000000       
Linear constraints   :
  Nonzeros           : Min   : 0.002441395      Max   : 100000.0       
  RHS nonzeros       : Min   : 0.001000000      Max   : 1000.000       
CPLEX> Version identifier: 22.1.1.0 | 2022-11-27 | 9160aff4d
Tried aggregator 3 times.
MIP Presolve eliminated 41307 rows and 22328 columns.
Aggregator did 7283 substitutions.
Reduced MIP has 15690 rows, 14234 columns, and 45171 nonzeros.
Reduced MIP has 2 binaries, 0 generals, 0 SOSs, and 0 indicators.
Presolve time = 0.11 sec. (135.02 ticks)
Found incumbent of value 161780.417796 after 0.12 sec. (157.09 ticks)
Probing time = 0.02 sec. (0.86 ticks)
Tried aggregator 1 time.
Detecting symmetries...
Reduced MIP has 15690 rows, 14234 columns, and 45171 nonzeros.
Reduced MIP has 2 binaries, 0 generals, 0 SOSs, and 0 indicators.
Presolve time = 0.01 sec. (27.21 ticks)
Probing time = 0.00 sec. (0.80 ticks)
MIP emphasis: balance optimality and feasibility.
MIP search method: dynamic search.
Parallel mode: deterministic, using up to 16 threads.
Root relaxation solution time = 0.42 sec. (399.47 ticks)

        Nodes                                         Cuts/
   Node  Left     Objective  IInf  Best Integer    Best Bound    ItCnt     Gap

*     0+    0                       161780.4178    -3677.5510           102.27%
*     0+    0                         2164.6180    -3677.5510           269.89%
*     0     0      integral     0     2162.5520     2162.5520     6052    0.00%
Elapsed time = 0.62 sec. (613.33 ticks, tree = 0.00 MB, solutions = 3)

Root node processing (before b&c):
  Real time             =    0.64 sec. (615.43 ticks)
Parallel b&c, 16 threads:
  Real time             =    0.00 sec. (0.00 ticks)
  Sync time (average)   =    0.00 sec.
  Wait time (average)   =    0.00 sec.
                          ------------
Total (root+branch&cut) =    0.64 sec. (615.43 ticks)

Solution pool: 3 solutions saved.

MIP - Integer optimal solution:  Objective =  2.1625519625e+03
Solution time =    0.64 sec.  Iterations = 6052  Nodes = 0
Deterministic time = 615.56 ticks  (960.31 ticks/sec)

CPLEX> Incumbent solution written to file 'C:\Users\wangy\Documents\GitHub\re_optimization\result_site_specific\tmp7m6zrs7e.cplex.sol'.
CPLEX> 
